; benchmark generated from python API
(set-info :status unknown)
(declare-datatypes ((IntState 0)) (((Mk1 (val1 Int)) (Mk2 (val2 Int)))))
 (declare-fun |c_hanoi_#t~ret0| () Int)
(declare-fun |c_hanoi_#in~n| () Int)
(declare-fun c_hanoi_~n () Int)
(assert
 (let (($x163 (exists ((v_nnf_326_st IntState) (val!157 Int) )(let (($x110 (<= |c_hanoi_#in~n| 3)))
 (let (($x155 (and $x110 (<= (+ (* 2 (val2 v_nnf_326_st)) 1) |c_hanoi_#t~ret0|) (<= 1 (val2 v_nnf_326_st)))))
 (let (($x52 (not (= v_nnf_326_st (Mk1 val!157)))))
 (and $x52 $x155)))))
 ))
 (let (($x112 (exists ((v_nnf_325 Int) )(let (($x147 (<= 1 v_nnf_325)))
 (let (($x11 (<= c_hanoi_~n 3)))
 (let (($x165 (<= (+ (* 2 v_nnf_325) 1) |c_hanoi_#t~ret0|)))
 (and $x165 $x11 (<= |c_hanoi_#in~n| c_hanoi_~n) $x147)))))
 ))
 (and $x112 (not $x163)))))
(check-sat)
